NAME           
ROWS
 N  obj     
 G  c1      
COLUMNS
    MARK0000  'MARKER'                 'INTORG'
    x1        obj                -11   c1                   5
    x2        obj                -12   c1                   6
    x3        obj                -13   c1                   7
    x4        obj                -15   c1                   8
    x5        obj                -15   c1                   9
    MARK0001  'MARKER'                 'INTEND'
RHS
RANGES
    rng       c1                  20
BOUNDS
 UP bnd       x1                   1
 UP bnd       x2                   1
 UP bnd       x3                   1
 UP bnd       x4                   1
 UP bnd       x5                   1
ENDATA
